/* Objective function */
min: 400 + 200 r0_1 + 100 r0_2
     + 1000 + 600 r1_1 + 300 r1_2
     + 1400 + 1000 r2_1 + 500 r2_2
     + 300 + 200 r3_1 + 100 r3_2
     + 1000 + 1600 r5_1 + 800 r5_2
     + 800 + 180 r6_1 + 90 r6_2
     + 900 + 300
     + 1600 + 1000 r10_1 + 500 r10_2
     + 1400 + 600 r11_1 + 300 r11_2;

/* Variable bounds */

r0_1 <= 0.5;
r0_1 >= 0.5 y0;
r0_2 <= 0.5y0;

r1_1 <= 1;
r1_1 >= 1 y1;
r1_2 <= 1y1;

r2_1 <= 3;
r2_1 >= 3y2;
r2_2 <= 1y2;

r3_1 <= 0.5;
r3_1 >= 0.5y3;
r3_2 <= 0.5y3;

r5_1 <= 0.5;
r5_1 >= 0.5y5;
r5_2 <= 0.5y5;

r6_1 <= 1;
r6_1 >= 1y6;
r6_2 <= 1y6;

r10_1 <= 0.5;
r10_1 >= 0.5y10;
r10_2 <= 0.5y10;

r11_1 <= 1;
r11_1 >= 1y11;
r11_2 <= 1y11;

t0 = 0;
t6 = 0;

t1 >= t0 + 4 - r0_1 - r0_2;

t2 >= t0 + 4 - r0_1 - r0_2;
t2 >= t1 + 6 - r1_1 - r1_2;
t2 >= t7 + 6;

t3 >= t2 + 7 - r2_1 - r2_2;
t3 >= t5 + 4 - r5_1 - r5_2;

t5 >= t0 + 4 - r0_1 - r0_2;
t5 >= t7 + 6;
t5 >= t10 + 8 - r10_1 - r10_2;

t7 >= t6 + 5 - r6_1 - r6_2;

t9 >= t7 + 6;
t9 >= t10 + 8 - r10_1 - r10_2;
t9 >= t11 + 7 - r11_1 - r11_2;

t10 >= t6 + 5 - r6_1 - r6_2;

t11 >= t10 + 8 - r10_1 - r10_2;

tf >= t3 + 2 - r3_1 - r3_2;
tf >= t5 + 4 - r5_1 - r5_2;
tf >= t9 + 2;

tf = 22 - y;
y = 4;

Bin y0, y1, y2, y3, y5, y6, y10, y11;